outputs/case_420.model.txt
internal_control_system_established = True
internal_handling_established = True
internal_handling_system_established = True
vote_record_reported_to_board = True
equity_swap_other_method = False
internal_control_executed = True
proxy_solicitor_self = False
internal_handling_executed = True
internal_control_established = True
submit_vote_evaluation = True
internal_control_system_executed = True
internal_control_and_handling_ok = True
insured_interest_not_harmed = True
report_vote_record = True
proxy_solicitor_others = False
equity_swap_other_contract = False
vote_evaluation_reported_before_meeting = True
equity_swap_agreement = False
protect_insured_interest = True
prohibit_equity_swap = True
prohibit_proxy_solicitor = True
equity_swap_commission_agreement = False
internal_handling_system_executed = True
penalty = False
equity_swap_trust_agreement = False
equity_swap_authorization = False